experiment/data/hgs-res/Vrp-Set-Golden-n321/Vrp-Set-Golden-n321-hgs/0.hgs1.tour
Route #1: 48 80 120 168 224 288 289 225 169 121 81 49
Route #2: 82 123 171 227 228 229 230 231 173 172 124 83 50
Route #3: 122 170 226 290 291 292 293 294 295 296 297 298 232 174 175 125
Route #4: 26 25 24 8
Route #5: 85 127 177 235 301 300 299 233 234 176 126 84 51
Route #6: 52 86 128 178 236 302 303 237 179 129 87 53
Route #7: 10 28 27 9
Route #8: 55 89 131 181 239 305 304 238 180 130 88 54
Route #9: 56 91 133 183 241 242 308 307 306 240 182 132 90
Route #10: 29 30 31 11
Route #11: 137 189 249 317 316 315 314 313 312 311 310 309 243 185 184 134
Route #12: 93 136 188 248 247 246 245 244 186 187 135 92 57
Route #13: 59 95 139 191 251 319 318 250 190 138 94 58
Route #14: 33 61 97 141 193 253 320 252 192 140 96 60
Route #15: 12 32 13 1
Route #16: 35 63 99 143 195 255 254 194 142 98 62 34
Route #17: 36 65 102 146 147 201 200 199 198 197 145 101 64
Route #18: 103 149 148 202 264 263 262 261 260 259 258 257 256 196 144 100
Route #19: 16 15 14 2
Route #20: 67 105 151 205 267 266 265 203 204 150 104 66 37
Route #21: 38 68 106 152 206 268 269 207 153 107 69 39
Route #22: 4 18 17 3
Route #23: 41 71 109 155 209 271 270 208 154 108 70 40
Route #24: 72 110 156 210 272 273 274 212 211 157 111 73 42
Route #25: 19 20 21 5
Route #26: 115 163 219 283 282 281 280 279 278 277 276 275 213 159 158 112
Route #27: 43 74 113 161 160 214 215 216 217 218 162 114 75
Route #28: 45 77 117 165 221 285 284 220 164 116 76 44
Route #29: 47 79 119 167 223 287 286 222 166 118 78 46
Route #30: 7 23 22 6
Cost 1080.55
